name="p11";
nr_vertices=18;
nr_edges=48;
neighborhoods=[{1,7,9,11,14},{0,6,8,10,12},{3,4,5,6,13},{2,4,5,6,15},{2,3,5,6,16},{2,3,4,6,17},{1,2,3,4,5,8,10,12},{0,8,9,11,14},{1,6,7,10,12},{0,7,10,11,14},{1,6,8,9,12},{0,7,9,12,14},{1,6,8,10,11},{2,14,15,16,17},{0,7,9,11,13,15,16,17},{3,13,14,16,17},{4,13,14,15,17},{5,13,14,15,16}];
weights=[1150,80,1150,900,650,400,280,900,60,650,40,400,30,80,280,60,40,30];
